Version identifier: 22.1.1.0 | 2022-11-28 | 9160aff4d
CPXPARAM_ClockType                               1
CPXPARAM_Read_DataCheck                          1
CPXPARAM_Threads                                 1
CPXPARAM_TimeLimit                               7200
CPXPARAM_MIP_Tolerances_AbsMIPGap                0
CPXPARAM_MIP_Tolerances_MIPGap                   0
CPXPARAM_MIP_Tolerances_Integrality              0
Tried aggregator 2 times.
MIP Presolve eliminated 817 rows and 1 columns.
MIP Presolve modified 1462 coefficients.
Aggregator did 600 substitutions.
Reduced MIP has 3216 rows, 1799 columns, and 9284 nonzeros.
Reduced MIP has 1799 binaries, 0 generals, 0 SOSs, and 0 indicators.
Presolve time = 0.02 sec. (11.99 ticks)
Probing time = 0.00 sec. (3.65 ticks)
Tried aggregator 1 time.
Detecting symmetries...
MIP Presolve eliminated 202 rows and 4 columns.
MIP Presolve modified 2 coefficients.
Reduced MIP has 3014 rows, 1795 columns, and 8674 nonzeros.
Reduced MIP has 1795 binaries, 0 generals, 0 SOSs, and 0 indicators.
Presolve time = 0.01 sec. (9.92 ticks)
Probing time = 0.01 sec. (2.29 ticks)
Clique table members: 6051.
MIP emphasis: balance optimality and feasibility.
MIP search method: dynamic search.
Parallel mode: none, using 1 thread.
Root relaxation solution time = 0.06 sec. (48.23 ticks)

        Nodes                                         Cuts/
   Node  Left     Objective  IInf  Best Integer    Best Bound    ItCnt     Gap

      0     0      200.0000   541                    200.0000      990         
      0     0      200.0000   493                 ZeroHalf: 6     1022         
      0     0      200.0000   475                    Cuts: 97     1177         
      0     0      200.0000   734               ZeroHalf: 102     1385         
      0     0      200.0000   501                 ZeroHalf: 3     1437         
      0     0      200.0000   618               ZeroHalf: 108     1620         
Detecting symmetries...
*     0+    0                          200.0000      200.0000             0.00%
      0     0        cutoff            200.0000      200.0000     1620    0.00%
Elapsed time = 0.96 sec. (667.56 ticks, tree = 0.01 MB, solutions = 1)

Zero-half cuts applied:  7

Root node processing (before b&c):
  Real time             =    0.96 sec. (667.65 ticks)
Sequential b&c:
  Real time             =    0.00 sec. (0.00 ticks)
                          ------------
Total (root+branch&cut) =    0.96 sec. (667.65 ticks)
Solution is feasible.

---------------------
@@@ MIP_optimal
>>> Benchmark flat100-7.cnf k 2 OPT 200 TimeCost 1.2362990379333496 TimeSolve 0.965397834777832 TimeRead 0.003123044967651367 TimeTrans 0.2677781581878662
